c ind 24 26 28 3 30 32 34 36 38 4 0
c ind 40 42 44 46 48 50 52 54 58 59 0
c ind 6 0
p cnf 60 146
-1 -2 5 0
-1 2 7 0
-10 11 0
-10 49 0
-11 12 0
-11 47 0
-12 13 0
-12 45 0
-13 14 0
-13 43 0
-14 15 0
-14 41 0
-15 16 0
-15 39 0
-16 17 0
-16 37 0
-17 18 0
-17 35 0
-18 19 0
-18 33 0
-19 20 0
-19 31 0
-2 -3 4 0
-2 -4 3 0
-20 21 0
-20 29 0
-21 22 0
-21 27 0
-22 23 0
-22 25 0
-23 -24 4 0
-23 -4 24 0
-25 -26 4 0
-25 -4 26 0
-27 -28 4 0
-27 -4 28 0
-29 -30 4 0
-29 -4 30 0
-31 -32 4 0
-31 -4 32 0
-33 -34 4 0
-33 -4 34 0
-35 -36 4 0
-35 -4 36 0
-37 -38 4 0
-37 -4 38 0
-39 -4 40 0
-39 -40 4 0
-41 -4 42 0
-41 -42 4 0
-43 -4 44 0
-43 -44 4 0
-45 -4 46 0
-45 -46 4 0
-47 -4 48 0
-47 -48 4 0
-49 -4 50 0
-49 -50 4 0
-5 -4 6 0
-5 -6 4 0
-51 -4 52 0
-51 -52 4 0
-53 -4 54 0
-53 -54 4 0
-55 -56 6 0
-55 -6 56 0
-56 -57 -59 0
-56 57 59 0
-57 -58 -4 0
-57 58 4 0
-59 0
-60 -58 6 0
-60 -6 58 0
-7 -8 55 0
-7 8 60 0
-8 53 0
-8 9 0
-9 10 0
-9 51 0
1 -2 -5 0
1 -5 -7 0
1 0
1 2 -7 0
10 -11 -49 0
11 -12 -47 0
12 -13 -45 0
13 -14 -43 0
14 -15 -41 0
15 -16 -39 0
16 -17 -37 0
17 -18 -35 0
18 -19 -33 0
19 -20 -31 0
2 -3 -4 0
2 3 4 0
20 -21 -29 0
21 -22 -27 0
22 -23 -25 0
23 -24 -4 0
23 24 4 0
25 -26 -4 0
25 26 4 0
27 -28 -4 0
27 28 4 0
29 -30 -4 0
29 30 4 0
31 -32 -4 0
31 32 4 0
33 -34 -4 0
33 34 4 0
35 -36 -4 0
35 36 4 0
37 -38 -4 0
37 38 4 0
39 -40 -4 0
39 40 4 0
4 0
41 -42 -4 0
41 42 4 0
43 -44 -4 0
43 44 4 0
45 -46 -4 0
45 46 4 0
47 -48 -4 0
47 48 4 0
49 -50 -4 0
49 50 4 0
5 -6 -4 0
5 6 4 0
51 -52 -4 0
51 52 4 0
53 -54 -4 0
53 54 4 0
55 -6 -56 0
55 6 56 0
56 -57 59 0
56 -59 57 0
57 -4 58 0
57 -58 4 0
60 -6 -58 0
60 6 58 0
7 -55 -60 0
7 -8 -55 0
7 8 -60 0
8 -9 -53 0
9 -10 -51 0
